
Gurobi 7.5.2 (linux64) logging started Sat Jul  7 16:21:17 2018

Changed value of parameter LogFile to result/ilp/simNo_10-n_100-m_40-s_4-minVAF_0.05-cov_10000-k_1-fn_0.10-fp_0.0001-na_0.15.ILP.gurobiSolverLog
   Prev: gurobi.log  Default: 
Changed value of parameter TimeLimit to 86400.0
   Prev: 1e+100  Min: 0.0  Max: 1e+100  Default: 1e+100
Optimize a model with 639293 rows, 10765 columns and 1940420 nonzeros
Variable types: 0 continuous, 10765 integer (10765 binary)
Coefficient statistics:
  Matrix range     [1e-04, 4e+00]
  Objective range  [3e-01, 9e+00]
  Bounds range     [1e+00, 1e+00]
  RHS range        [3e-01, 2e+00]
Found heuristic solution: objective -16109.14304
Presolve removed 123314 rows and 904 columns (presolve time = 5s) ...
Presolve removed 123501 rows and 904 columns (presolve time = 11s) ...
Presolve removed 123960 rows and 904 columns (presolve time = 17s) ...
Presolve removed 169860 rows and 1363 columns (presolve time = 20s) ...
Presolve removed 169860 rows and 1363 columns
Presolve time: 23.08s
Presolved: 469433 rows, 9402 columns, 1415245 nonzeros
Variable types: 0 continuous, 9402 integer (9402 binary)
Presolved: 9402 rows, 478835 columns, 1424647 nonzeros

Presolve removed 9402 rows and 478835 columns

Root simplex log...

Iteration    Objective       Primal Inf.    Dual Inf.      Time
       0    5.7554011e+00   0.000000e+00   8.179200e+04     27s
   19989   -2.7675532e+02   0.000000e+00   1.741143e+05     30s
   38946   -3.4890738e+02   0.000000e+00   0.000000e+00     36s
   38946   -3.4890738e+02   0.000000e+00   0.000000e+00     37s

Root relaxation: objective -3.489074e+02, 38946 iterations, 11.71 seconds
Total elapsed time = 75.85s
Total elapsed time = 129.51s
Total elapsed time = 153.53s

    Nodes    |    Current Node    |     Objective Bounds      |     Work
 Expl Unexpl |  Obj  Depth IntInf | Incumbent    BestBd   Gap | It/Node Time

     0     0 -348.90738    0 1140 -16109.143 -348.90738  97.8%     -  164s
H    0     0                    -480.4434412 -348.90738  27.4%     -  169s
H    0     0                    -426.3958900 -348.90738  18.2%     -  170s
     0     0 -355.05442    0 1159 -426.39589 -355.05442  16.7%     -  223s
     0     0 -355.05442    0 1082 -426.39589 -355.05442  16.7%     -  238s
     0     0 -358.69735    0 1237 -426.39589 -358.69735  15.9%     -  297s
H    0     0                    -419.0688489 -358.69735  14.4%     -  301s
     0     0 -358.69735    0 1276 -419.06885 -358.69735  14.4%     -  304s
     0     0 -360.54970    0 1113 -419.06885 -360.54970  14.0%     -  329s
H    0     0                    -403.3879519 -360.54970  10.6%     -  335s
     0     0 -360.54970    0 1106 -403.38795 -360.54970  10.6%     -  337s
     0     0 -362.91017    0 1113 -403.38795 -362.91017  10.0%     -  408s
H    0     0                    -398.4209113 -362.91017  8.91%     -  414s
     0     0 -362.93075    0 1315 -398.42091 -362.93075  8.91%     -  423s
     0     0 -362.93075    0 1314 -398.42091 -362.93075  8.91%     -  429s
     0     0 -364.15193    0 1271 -398.42091 -364.15193  8.60%     -  478s
     0     0 -364.15193    0 1273 -398.42091 -364.15193  8.60%     -  485s
     0     0 -364.98688    0 1401 -398.42091 -364.98688  8.39%     -  549s
     0     0 -365.35251    0 1125 -398.42091 -365.35251  8.30%     -  587s
     0     0 -365.35251    0 1124 -398.42091 -365.35251  8.30%     -  590s
     0     0 -365.90312    0 1347 -398.42091 -365.90312  8.16%     -  644s
     0     0 -366.33580    0 1434 -398.42091 -366.33580  8.05%     -  689s
     0     0 -366.45229    0 1428 -398.42091 -366.45229  8.02%     -  699s
     0     0 -366.45229    0 1428 -398.42091 -366.45229  8.02%     -  701s
     0     0 -367.24557    0 1343 -398.42091 -367.24557  7.82%     -  761s
     0     0 -369.27399    0 1394 -398.42091 -369.27399  7.32%     -  888s
     0     0 -369.28086    0 1362 -398.42091 -369.28086  7.31%     -  899s
     0     0 -369.28086    0 1393 -398.42091 -369.28086  7.31%     -  903s
     0     0 -371.73007    0 1208 -398.42091 -371.73007  6.70%     - 1640s
     0     0 -371.73007    0 1292 -398.42091 -371.73007  6.70%     - 1654s
     0     0 -371.73007    0 1305 -398.42091 -371.73007  6.70%     - 1670s
     0     0 -371.91500    0 1320 -398.42091 -371.91500  6.65%     - 1726s
     0     0 -372.02881    0 1406 -398.42091 -372.02881  6.62%     - 1747s
     0     0 -372.07570    0 1417 -398.42091 -372.07570  6.61%     - 1763s
     0     0 -372.07570    0 1417 -398.42091 -372.07570  6.61%     - 1766s
     0     0 -374.15892    0 1207 -398.42091 -374.15892  6.09%     - 2619s
     0     0 -374.58496    0 1303 -398.42091 -374.58496  5.98%     - 2661s
     0     0 -374.80114    0 1291 -398.42091 -374.80114  5.93%     - 2674s
     0     0 -374.80114    0 1291 -398.42091 -374.80114  5.93%     - 2678s
     0     0 -377.52378    0 1221 -398.42091 -377.52378  5.24%     - 5061s
     0     0 -377.52378    0 1263 -398.42091 -377.52378  5.24%     - 5070s
     0     0 -378.25672    0  802 -398.42091 -378.25672  5.06%     - 5154s
     0     0 -380.06789    0 1034 -398.42091 -380.06789  4.61%     - 8789s
     0     0 -380.06789    0 1033 -398.42091 -380.06789  4.61%     - 8796s
     0     0 -380.06789    0 1213 -398.42091 -380.06789  4.61%     - 8816s
     0     0 -380.31212    0 1233 -398.42091 -380.31212  4.55%     - 9120s
     0     0 -380.31212    0 1247 -398.42091 -380.31212  4.55%     - 9129s
     0     0 -381.94722    0 1328 -398.42091 -381.94722  4.13%     - 40833s
     0     0 -381.94722    0 1335 -398.42091 -381.94722  4.13%     - 40843s
     0     0 -383.11015    0 1299 -398.42091 -383.11015  3.84%     - 41042s
     0     0 -383.23252    0 1303 -398.42091 -383.23252  3.81%     - 41100s
     0     0 -383.36506    0 1240 -398.42091 -383.36506  3.78%     - 41171s
     0     0 -383.44270    0 1309 -398.42091 -383.44270  3.76%     - 41219s
     0     0 -383.44270    0 1315 -398.42091 -383.44270  3.76%     - 41223s
     0     0 -384.63751    0 1394 -398.42091 -384.63751  3.46%     - 50464s
     0     0 -384.77795    0 1289 -398.42091 -384.77795  3.42%     - 50477s
     0     0 -384.77795    0 1287 -398.42091 -384.77795  3.42%     - 50480s
     0     0 -385.57440    0 1308 -398.42091 -385.57440  3.22%     - 50581s
     0     0 -385.72808    0 1308 -398.42091 -385.72808  3.19%     - 50620s
     0     0 -385.76805    0 1311 -398.42091 -385.76805  3.18%     - 50633s
     0     0 -385.76821    0 1313 -398.42091 -385.76821  3.18%     - 50637s
     0     0 -386.67269    0 1290 -398.42091 -386.67269  2.95%     - 50803s
     0     0 -386.75773    0 1213 -398.42091 -386.75773  2.93%     - 50903s
     0     0 -386.89225    0 1275 -398.42091 -386.89225  2.89%     - 50921s
     0     0 -386.89430    0 1296 -398.42091 -386.89430  2.89%     - 50929s
     0     0 -386.89701    0 1296 -398.42091 -386.89701  2.89%     - 50941s
     0     0 -386.89701    0 1297 -398.42091 -386.89701  2.89%     - 50947s
     0     0 -387.23308    0 1294 -398.42091 -387.23308  2.81%     - 51006s
     0     0 -387.71806    0 1299 -398.42091 -387.71806  2.69%     - 51020s
     0     0 -387.71953    0 1300 -398.42091 -387.71953  2.69%     - 51026s
     0     0 -387.94348    0 1232 -398.42091 -387.94348  2.63%     - 51133s
     0     0 -388.03563    0 1306 -398.42091 -388.03563  2.61%     - 51191s
     0     0 -388.05375    0 1228 -398.42091 -388.05375  2.60%     - 51205s
     0     0 -388.09585    0 1224 -398.42091 -388.09585  2.59%     - 51214s
     0     0 -388.09585    0 1225 -398.42091 -388.09585  2.59%     - 51216s
     0     0 -388.09585    0 1186 -398.42091 -388.09585  2.59%     - 51225s
     0     0 -388.09585    0 1179 -398.42091 -388.09585  2.59%     - 51230s
     0     0 -388.09585    0 1184 -398.42091 -388.09585  2.59%     - 51238s
     0     0 -388.09585    0 1186 -398.42091 -388.09585  2.59%     - 51243s
     0     0 -388.09585    0 1081 -398.42091 -388.09585  2.59%     - 51939s
     0     0 -388.09585    0 1080 -398.42091 -388.09585  2.59%     - 52005s
     0     2 -388.09762    0 1080 -398.42091 -388.09762  2.59%     - 52166s
     1     3 -390.00492    1  839 -398.42091 -388.10625  2.59%  9050 52203s
     2     4 -391.22609    2  827 -398.42091 -388.10625  2.59%  4808 52210s
     3     5 -393.66844    2  839 -398.42091 -388.10625  2.59%  3368 52218s
     4     6 -392.44727    3  765 -398.42091 -388.10625  2.59%  2621 52220s
     6     6 -393.66844    4  718 -398.42091 -388.10625  2.59%  1959 52226s
     7     5     cutoff    4      -398.42091 -388.10625  2.59%  2613 52245s
     8     6 -394.88961    5  761 -398.42091 -388.10625  2.59%  2324 52252s
     9     7 -396.11079    6  762 -398.42091 -388.10625  2.59%  2073 52255s
    15     5 -393.43453    1  465 -398.42091 -393.43453  1.25%  1947 52317s
    16     6 -397.55916    2  463 -398.42091 -393.43453  1.25%  1918 52330s
    21     5 -393.78045    2  416 -398.42091 -393.66844  1.19%  1547 52336s
    22     6 -395.00163    3  384 -398.42091 -393.66844  1.19%  1527 52342s
    23     5     cutoff    3      -398.42091 -393.66844  1.19%  1710 52362s
    24     6 -395.81574    4  388 -398.42091 -393.66844  1.19%  1657 52373s
    26     8 -397.60680    6  156 -398.42091 -393.66844  1.19%  1547 52376s
    31     7 -396.79268    6  246 -398.42091 -393.66844  1.19%  1326 52381s
    36     8     cutoff   10      -398.42091 -393.66844  1.19%  1163 52385s
    41     3     cutoff    3      -398.42091 -393.77960  1.16%  1049 52390s
    45     5 -396.11079    5  844 -398.42091 -395.00163  0.86%   970 52397s
    48     6 -397.33196    7  960 -398.42091 -395.00163  0.86%   922 52407s
    53     3 -396.22334    4  370 -398.42091 -396.22334  0.55%   858 52411s
    54     4 -397.13568    5  612 -398.42091 -396.23052  0.55%   867 52416s
    58     4 -397.44397    7  418 -398.42091 -396.79268  0.41%   822 52420s

Cutting planes:
  Gomory: 2
  Zero half: 130

Explored 65 nodes (1657289 simplex iterations) in 52424.97 seconds
Thread count was 1 (of 80 available processors)

Solution count 6: -398.421 -403.388 -419.069 ... -16109.1

Optimal solution found (tolerance 1.00e-04)
Best objective -3.984209112936e+02, best bound -3.984209112936e+02, gap 0.0000%
